NAME          
ROWS
 N  OBJ
 L  c1
COLUMNS
    MARKER    'MARKER'                 'INTORG'
    x[1]      c1        454
    x[1]      OBJ       -330
    x[2]      c1        760
    x[2]      OBJ       -777
    x[3]      c1        79
    x[3]      OBJ       -354
    x[4]      c1        578
    x[4]      OBJ       -330
    x[5]      c1        875
    x[5]      OBJ       -81
    x[6]      c1        87
    x[6]      OBJ       -380
    x[7]      c1        449
    x[7]      OBJ       -79
    x[8]      c1        627
    x[8]      OBJ       -325
    x[9]      c1        927
    x[9]      OBJ       -562
    x[10]     c1        463
    x[10]     OBJ       -264
    x[11]     c1        161
    x[11]     OBJ       -628
    x[12]     c1        442
    x[12]     OBJ       -685
    x[13]     c1        68
    x[13]     OBJ       -221
    x[14]     c1        25
    x[14]     OBJ       -851
    x[15]     c1        569
    x[15]     OBJ       -620
    x[16]     c1        399
    x[16]     OBJ       -27
    x[17]     c1        640
    x[17]     OBJ       -318
    x[18]     c1        610
    x[18]     OBJ       -248
    x[19]     c1        459
    x[19]     OBJ       -648
    x[20]     c1        785
    x[20]     OBJ       -403
RHS
    rhs       c1        4728
RANGES
BOUNDS
 BV bounds    x[1]
 BV bounds    x[2]
 BV bounds    x[3]
 BV bounds    x[4]
 BV bounds    x[5]
 BV bounds    x[6]
 BV bounds    x[7]
 BV bounds    x[8]
 BV bounds    x[9]
 BV bounds    x[10]
 BV bounds    x[11]
 BV bounds    x[12]
 BV bounds    x[13]
 BV bounds    x[14]
 BV bounds    x[15]
 BV bounds    x[16]
 BV bounds    x[17]
 BV bounds    x[18]
 BV bounds    x[19]
 BV bounds    x[20]
ENDATA
